
Gurobi 9.0.2 (win64) logging started Mon Oct 25 10:48:34 2021

Changed value of parameter LogFile to logs\CRVRP_10-3-7-100_2_2.LOG
   Prev: logs\CRVRP_10-3-7-100_2_1.LOG  Default: 
Changed value of parameter Seed to 986615071
   Prev: 391669444  Min: 0  Max: 2000000000  Default: 0
Parameter Threads unchanged
   Value: 2  Min: 0  Max: 1024  Default: 0
Parameter TimeLimit unchanged
   Value: 600.0  Min: 0.0  Max: inf  Default: inf
Parameter Symmetry unchanged
   Value: 2  Min: -1  Max: 2  Default: -1
Parameter Cuts unchanged
   Value: 2  Min: -1  Max: 3  Default: -1
Parameter PreDepRow unchanged
   Value: 1  Min: -1  Max: 1  Default: -1
Parameter ScaleFlag unchanged
   Value: 1  Min: -1  Max: 3  Default: -1
Parameter NormAdjust unchanged
   Value: 0  Min: -1  Max: 3  Default: -1
Gurobi Optimizer version 9.0.2 build v9.0.2rc0 (win64)
Optimize a model with 6903 rows, 3980 columns and 27871 nonzeros
Model fingerprint: 0xef95ae95
Variable types: 72 continuous, 3908 integer (2612 binary)
Coefficient statistics:
  Matrix range     [5e-01, 1e+05]
  Objective range  [1e+00, 1e+00]
  Bounds range     [1e+00, 1e+04]
  RHS range        [1e+00, 1e+05]
Presolve removed 0 rows and 1054 columns
Presolve time: 0.00s

Explored 0 nodes (0 simplex iterations) in 0.01 seconds
Thread count was 1 (of 4 available processors)

Solution count 0

Model is infeasible
Best objective -, best bound -, gap -

IIS computed: 1 constraints, 1 bounds
IIS runtime: 0.00 seconds
Discarded solution information

Gurobi 9.0.2 (win64) logging started Mon Oct 25 10:49:10 2021

Changed value of parameter LogFile to logs\CRVRP_10-3-7-100_2_2.LOG
   Prev: logs\CRVRP_10-3-7-100_2_1.LOG  Default: 
Changed value of parameter Seed to 1030148625
   Prev: 1829840109  Min: 0  Max: 2000000000  Default: 0
Parameter Threads unchanged
   Value: 2  Min: 0  Max: 1024  Default: 0
Parameter TimeLimit unchanged
   Value: 600.0  Min: 0.0  Max: inf  Default: inf
Parameter Symmetry unchanged
   Value: 2  Min: -1  Max: 2  Default: -1
Parameter Cuts unchanged
   Value: 2  Min: -1  Max: 3  Default: -1
Parameter PreDepRow unchanged
   Value: 1  Min: -1  Max: 1  Default: -1
Parameter ScaleFlag unchanged
   Value: 1  Min: -1  Max: 3  Default: -1
Parameter NormAdjust unchanged
   Value: 0  Min: -1  Max: 3  Default: -1
Gurobi Optimizer version 9.0.2 build v9.0.2rc0 (win64)
Optimize a model with 6903 rows, 3980 columns and 27871 nonzeros
Model fingerprint: 0x063d6750
Variable types: 72 continuous, 3908 integer (2612 binary)
Coefficient statistics:
  Matrix range     [5e-01, 1e+06]
  Objective range  [1e+00, 1e+00]
  Bounds range     [1e+00, 1e+04]
  RHS range        [1e+00, 1e+06]
Presolve removed 0 rows and 1054 columns
Presolve time: 0.00s

Explored 0 nodes (0 simplex iterations) in 0.01 seconds
Thread count was 1 (of 4 available processors)

Solution count 0

Model is infeasible
Best objective -, best bound -, gap -

IIS computed: 1 constraints, 1 bounds
IIS runtime: 0.00 seconds
Discarded solution information

Gurobi 9.0.2 (win64) logging started Fri Oct 29 14:43:23 2021

Changed value of parameter LogFile to logs\CRVRP_10-3-7-100_2_2.LOG
   Prev: logs\CRVRP_10-3-7-100_2_1.LOG  Default: 
Changed value of parameter Seed to 1534954407
   Prev: 1585969974  Min: 0  Max: 2000000000  Default: 0
Parameter Threads unchanged
   Value: 2  Min: 0  Max: 1024  Default: 0
Parameter TimeLimit unchanged
   Value: 60.0  Min: 0.0  Max: inf  Default: inf
Parameter Symmetry unchanged
   Value: 2  Min: -1  Max: 2  Default: -1
Parameter Cuts unchanged
   Value: 2  Min: -1  Max: 3  Default: -1
Parameter PreDepRow unchanged
   Value: 1  Min: -1  Max: 1  Default: -1
Parameter ScaleFlag unchanged
   Value: 1  Min: -1  Max: 3  Default: -1
Parameter NormAdjust unchanged
   Value: 0  Min: -1  Max: 3  Default: -1
Gurobi Optimizer version 9.0.2 build v9.0.2rc0 (win64)
Optimize a model with 2815 rows, 1796 columns and 12549 nonzeros
Model fingerprint: 0xcebef33d
Variable types: 48 continuous, 1748 integer (1172 binary)
Coefficient statistics:
  Matrix range     [5e-01, 1e+06]
  Objective range  [1e+00, 1e+00]
  Bounds range     [1e+00, 1e+04]
  RHS range        [1e+00, 1e+06]
Presolve removed 1873 rows and 1077 columns
Presolve time: 0.08s
Presolved: 942 rows, 719 columns, 6052 nonzeros
Variable types: 21 continuous, 698 integer (580 binary)

Root relaxation: objective 3.100056e+03, 576 iterations, 0.02 seconds

    Nodes    |    Current Node    |     Objective Bounds      |     Work
 Expl Unexpl |  Obj  Depth IntInf | Incumbent    BestBd   Gap | It/Node Time

     0     0 3100.05604    0   50          - 3100.05604      -     -    0s
     0     0 3187.50576    0   87          - 3187.50576      -     -    0s
H    0     0                    9784.8825319 3187.50576  67.4%     -    0s
     0     0 3282.55273    0   88 9784.88253 3282.55273  66.5%     -    0s
H    0     0                    9767.1988192 3282.55273  66.4%     -    0s
     0     0 3583.96892    0   89 9767.19882 3583.96892  63.3%     -    0s
H    0     0                    7327.0716016 3583.96892  51.1%     -    0s
     0     0 3584.29398    0   86 7327.07160 3584.29398  51.1%     -    0s
     0     0 3584.53864    0   94 7327.07160 3584.53864  51.1%     -    0s
     0     0 3584.53864    0   83 7327.07160 3584.53864  51.1%     -    1s
     0     2 3584.86023    0   83 7327.07160 3584.86023  51.1%     -    1s
H   56    59                    7169.8254911 3715.24232  48.2%   182    2s
H  141   140                    5998.5855802 3715.24232  38.1%  95.2    2s
   743   642 4157.94825   43   51 5998.58558 3747.54447  37.5%  52.9    5s
H  743   609                    5811.3828795 3747.54447  35.5%  52.9    5s
H  746   581                    5681.9545765 3747.54447  34.0%  52.7    6s
   810   634 3894.71611   30   42 5681.95458 3747.54447  34.0%  71.0   10s
* 1008   701              53    5647.3353271 3747.54447  33.6%  77.7   12s
  1675  1007 5365.32373   51   19 5647.33533 3747.54447  33.6%  69.0   15s
H 1810  1075                    5607.9306479 3747.54447  33.2%  68.1   16s
H 3337  1678                    5603.1967790 3747.54447  33.1%  61.0   19s
  3367  1819 5365.32373   50   37 5603.19678 3747.54447  33.1%  60.9   20s
  5339  2941 4603.78853   38   40 5603.19678 3747.54447  33.1%  56.4   25s
H 6976  3657                    5578.3274432 3747.54447  32.8%  55.0   28s
  7246  3963 5036.70743   71   14 5578.32744 3747.54447  32.8%  55.6   30s
  9505  5255 4022.64039   53   32 5578.32744 3747.54447  32.8%  54.7   35s
H11089  5899                    5550.8626975 3747.54447  32.5%  55.3   39s
 11090  5994 5292.34504   44   40 5550.86270 3747.54447  32.5%  55.4   40s
 12982  6731 infeasible   58      5550.86270 3747.54448  32.5%  55.4   45s
H14711  7478                    5518.9723717 3747.54448  32.1%  55.6   49s
 14719  7577 4199.80718   56   28 5518.97237 3747.54448  32.1%  55.6   50s
H15813  8219                    5518.9723711 3747.54448  32.1%  55.1   52s
 16461  8666 4687.32392   57   48 5518.97237 3747.54449  32.1%  55.4   55s
H18439  9056                    5469.2844631 3747.54456  31.5%  54.8   59s
H18607  8886                    5421.8673701 3747.54456  30.9%  54.9   59s
 19013  9108 3747.55560   50   62 5421.86737 3747.54456  30.9%  54.6   60s

Cutting planes:
  Gomory: 17
  Cover: 6
  Implied bound: 8
  Projected implied bound: 1
  MIR: 37
  StrongCG: 1
  Flow cover: 41
  GUB cover: 1
  Inf proof: 1
  Zero half: 16
  RLT: 2
  Relax-and-lift: 2

Explored 19031 nodes (1040810 simplex iterations) in 60.00 seconds
Thread count was 2 (of 4 available processors)

Solution count 10: 5421.87 5469.28 5518.97 ... 5681.95

Time limit reached
Best objective 5.421867370066e+03, best bound 3.747544559235e+03, gap 30.8809%
Discarded solution information
